750
300 300
1 210 63
2 210 158
3 210 219
4 209 693
5 209 810
6 209 423
7 208 22
8 208 903
9 208 930
10 207 343
11 207 641
12 207 373
13 207 388
14 207 954
15 207 953
16 207 389
17 207 891
18 206 142
19 206 176
20 205 285
21 205 316
22 205 993
23 205 0
24 205 765
25 205 241
26 204 266
27 204 454
28 204 167
29 204 19
30 204 678
31 203 959
32 203 774
33 203 858
34 202 592
35 202 265
36 202 759
37 202 430
38 202 249
39 201 611
40 201 626
41 201 860
42 201 669
43 201 739
44 201 51
45 200 670
46 200 43
47 200 940
48 200 105
49 199 3
50 199 176
51 199 864
52 199 640
53 199 770
54 199 557
55 199 843
56 199 932
57 198 11
58 198 636
59 198 496
60 198 873
61 197 777
62 197 35
63 197 328
64 197 577
65 197 799
66 196 904
67 196 118
68 196 708
69 196 590
70 196 356
71 196 464
72 195 955
73 195 946
74 195 714
75 195 255
76 194 448
77 194 638
78 194 387
79 194 303
80 193 497
81 193 677
82 192 860
83 192 419
84 192 451
85 192 385
86 192 810
87 192 955
88 192 908
89 191 387
90 191 790
91 191 484
92 191 556
93 191 436
94 191 292
95 191 405
96 191 204
97 190 549
98 190 653
99 190 213
100 190 402
101 190 276
102 189 159
103 189 159
104 189 523
105 189 600
106 188 776
107 188 470
108 188 166
109 188 311
110 188 218
111 188 56
112 188 275
113 187 200
114 187 199
115 186 523
116 186 659
117 186 992
118 186 489
119 185 715
120 185 181
121 185 2
122 185 131
123 185 535
124 185 632
125 185 31
126 185 71
127 184 910
128 184 924
129 184 181
130 184 426
131 183 302
132 183 296
133 183 887
134 183 431
135 183 225
136 183 923
137 183 549
138 183 101
139 183 252
140 183 368
141 182 640
142 182 922
143 182 297
144 182 669
145 182 510
146 182 267
147 182 47
148 181 525
149 181 570
150 181 538
151 181 370
152 181 823
153 181 343
154 181 722
155 181 970
156 180 102
157 180 150
158 180 49
159 180 774
160 180 919
161 179 864
162 179 402
163 179 930
164 179 643
165 178 927
166 178 227
167 178 763
168 178 771
169 178 406
170 178 892
171 178 634
172 177 798
173 177 919
174 177 59
175 177 908
176 176 912
177 176 713
178 176 215
179 176 575
180 175 76
181 175 827
182 175 735
183 174 227
184 174 628
185 173 161
186 173 245
187 173 350
188 173 24
189 173 636
190 173 870
191 173 495
192 172 53
193 172 839
194 172 925
195 172 79
196 171 766
197 171 586
198 171 525
199 170 606
200 170 653
201 170 99
202 170 382
203 170 531
204 170 371
205 169 124
206 169 867
207 168 183
208 168 411
209 167 458
210 167 120
211 167 888
212 167 741
213 167 38
214 167 712
215 167 793
216 167 862
217 166 124
218 166 587
219 166 284
220 166 525
221 166 98
222 166 56
223 165 734
224 165 628
225 165 92
226 165 811
227 164 313
228 164 110
229 164 609
230 164 492
231 163 221
232 163 826
233 163 991
234 163 610
235 163 407
236 162 30
237 162 472
238 162 815
239 162 562
240 162 278
241 162 490
242 162 287
243 162 189
244 161 391
245 161 811
246 161 27
247 161 890
248 160 503
249 160 738
250 160 116
251 160 622
252 159 23
253 159 271
254 159 601
255 159 355
256 158 480
257 158 988
258 158 686
259 158 803
260 157 857
261 157 716
262 157 100
263 157 559
264 157 708
265 157 609
266 157 740
267 156 129
268 156 392
269 156 497
270 156 718
271 156 209
272 156 210
273 156 389
274 156 228
275 156 793
276 156 135
277 155 712
278 155 41
279 155 248
280 155 26
281 154 15
282 154 811
283 154 605
284 154 970
285 154 544
286 154 740
287 153 296
288 153 402
289 153 451
290 153 847
291 153 829
292 153 151
293 152 37
294 152 497
295 152 840
296 152 901
297 152 5
298 152 344
299 152 169
300 152 543
301 151 158
302 151 812
303 150 714
304 150 793
305 150 811
306 150 931
307 149 16
308 149 958
309 149 774
310 149 495
311 148 66
312 147 646
313 147 229
314 147 395
315 147 324
316 147 446
317 147 739
318 147 14
319 147 738
320 147 767
321 146 621
322 146 561
323 145 393
324 145 1000
325 145 219
326 145 567
327 144 976
328 144 253
329 144 398
330 144 684
331 144 49
332 144 531
333 144 372
334 143 604
335 142 806
336 142 6
337 142 894
338 141 842
339 141 842
340 141 208
341 141 703
342 140 669
343 140 369
344 140 758
345 140 700
346 140 800
347 139 438
348 139 953
349 138 647
350 138 135
351 137 886
352 137 819
353 137 93
354 137 123
355 137 478
356 137 311
357 136 771
358 136 968
359 136 887
360 135 31
361 135 367
362 135 600
363 135 293
364 134 310
365 134 915
366 133 106
367 133 755
368 133 481
369 133 339
370 133 789
371 133 986
372 132 575
373 132 569
374 132 733
375 132 348
376 132 674
377 132 679
378 132 631
379 132 900
380 132 703
381 132 128
382 132 801
383 132 387
384 131 387
385 131 20
386 131 645
387 131 599
388 131 153
389 131 922
390 130 827
391 130 909
392 130 793
393 129 501
394 129 722
395 129 601
396 128 934
397 128 458
398 128 31
399 128 570
400 128 998
401 127 90
402 127 976
403 127 169
404 127 504
405 127 673
406 127 175
407 127 34
408 126 642
409 126 6
410 126 706
411 126 62
412 125 61
413 125 742
414 124 777
415 124 99
416 124 987
417 124 35
418 123 684
419 123 983
420 123 44
421 123 335
422 123 893
423 123 269
424 122 723
425 122 913
426 122 241
427 122 777
428 121 595
429 121 225
430 121 34
431 121 531
432 121 761
433 121 356
434 120 374
435 120 168
436 119 51
437 119 361
438 119 119
439 119 176
440 118 805
441 118 582
442 118 646
443 118 341
444 118 468
445 118 125
446 117 988
447 117 690
448 117 830
449 117 629
450 117 211
451 117 169
452 117 465
453 116 882
454 116 65
455 116 559
456 116 131
457 116 522
458 115 584
459 115 456
460 115 925
461 114 84
462 114 322
463 114 362
464 114 676
465 114 61
466 114 76
467 113 734
468 113 770
469 113 868
470 112 792
471 112 732
472 112 596
473 112 96
474 111 985
475 111 683
476 111 410
477 111 168
478 111 949
479 111 996
480 111 826
481 111 258
482 111 574
483 110 337
484 110 650
485 110 126
486 109 395
487 109 813
488 109 158
489 109 986
490 108 417
491 108 535
492 107 892
493 107 810
494 107 281
495 107 918
496 107 93
497 107 281
498 107 921
499 107 201
500 107 757
501 106 583
502 106 15
503 105 685
504 105 499
505 105 985
506 105 957
507 104 284
508 104 517
509 104 789
510 104 480
511 103 647
512 103 164
513 103 416
514 103 53
515 103 967
516 103 873
517 102 157
518 102 788
519 102 767
520 102 858
521 102 398
522 101 623
523 101 304
524 101 105
525 101 996
526 100 938
527 100 498
528 100 513
529 99 282
530 99 107
531 99 129
532 99 416
533 99 1000
534 99 428
535 98 24
536 98 66
537 98 592
538 98 214
539 97 337
540 97 494
541 97 910
542 97 515
543 97 79
544 97 469
545 96 192
546 96 210
547 96 200
548 96 118
549 96 911
550 96 690
551 95 750
552 95 332
553 94 245
554 94 682
555 94 371
556 94 636
557 94 427
558 94 480
559 94 779
560 94 611
561 93 326
562 93 491
563 93 840
564 93 454
565 92 296
566 92 189
567 91 872
568 91 491
569 91 720
570 91 753
571 91 256
572 90 168
573 90 404
574 90 457
575 90 839
576 90 794
577 89 908
578 89 240
579 89 950
580 89 815
581 89 1
582 88 822
583 88 978
584 88 148
585 88 302
586 87 141
587 87 147
588 87 393
589 86 756
590 86 532
591 86 28
592 86 969
593 86 279
594 86 180
595 85 695
596 85 679
597 85 195
598 85 20
599 84 345
600 84 865
601 84 576
602 84 245
603 84 787
604 83 769
605 83 171
606 83 617
607 83 526
608 83 211
609 83 626
610 82 496
611 82 124
612 82 972
613 82 218
614 82 523
615 82 414
616 82 504
617 82 674
618 82 139
619 82 926
620 81 436
621 81 775
622 81 480
623 81 143
624 80 429
625 80 160
626 80 232
627 80 294
628 80 988
629 79 337
630 79 716
631 79 754
632 79 308
633 79 341
634 79 330
635 78 58
636 78 269
637 78 917
638 78 22
639 78 974
640 78 665
641 78 256
642 78 721
643 78 147
644 77 805
645 77 25
646 77 182
647 77 784
648 77 281
649 77 758
650 77 682
651 76 529
652 76 969
653 76 217
654 76 576
655 76 867
656 75 391
657 75 52
658 75 422
659 74 629
660 74 240
661 74 412
662 74 253
663 74 301
664 73 172
665 73 359
666 72 865
667 72 11
668 72 46
669 72 416
670 71 570
671 71 128
672 71 806
673 71 851
674 71 554
675 71 976
676 71 720
677 71 869
678 70 90
679 70 111
680 70 40
681 70 694
682 70 47
683 70 154
684 70 618
685 70 8
686 69 986
687 69 503
688 69 929
689 69 986
690 69 706
691 69 267
692 69 138
693 68 64
694 68 834
695 68 640
696 68 479
697 68 775
698 68 79
699 68 770
700 68 666
701 68 505
702 67 942
703 67 313
704 67 595
705 67 993
706 67 533
707 67 974
708 67 733
709 67 806
710 66 900
711 66 254
712 66 41
713 66 643
714 66 166
715 66 873
716 66 925
717 66 234
718 65 468
719 65 46
720 65 642
721 65 710
722 65 359
723 65 156
724 65 769
725 65 667
726 64 330
727 64 420
728 64 17
729 64 345
730 64 242
731 64 540
732 64 620
733 63 678
734 63 996
735 63 101
736 62 246
737 62 759
738 62 725
739 62 355
740 62 335
741 61 778
742 61 431
743 61 84
744 61 664
745 60 171
746 60 969
747 60 141
748 60 656
749 60 437
750 60 44
